93 96
45 42
57 24
99 2
12 9
13 62
52 56
94 84
19 26
99 69
75 36
2 95
7 4
24 57
3 57
85 53
99 18
26 45
85 73
61 71
7 25
78 32
1 85
20 69
23 84
70 64
80 66
42 39
76 78
79 59
99 55
92 79
31 15
96 93
51 19
19 81
22 22
39 58
15 92
54 45
28 81
81 52
77 91
99 19
17 35
81 65
99 23
50 87
56 18
18 7
78 94
82 38
76 39
43 32
10 92
52 2
99 59
97 92
33 91
53 28
95 52
60 0
42 65
24 46
86 93
76 49
100 54
1 58
70 83
29 28
38 6
52 74
69 54
96 94
84 61
39 20
70 56
77 34
9 11
13 77
18 59
62 50
40 26
77 40
61 60
85 36
36 58
50 13
37 35
79 87
80 21
49 81
59 23
84 47
63 15
55 25
14 12
59 88
24 29
1 12
